TSPLib/instances/tsp_35.tsp
NAME: tsp_35
TYPE: TSP
DIMENSION: 35
EDGE_WEIGHT_TYPE: EUC_2D
NODE_COORD_SECTION
1 48 329
2 34 111
3 98 303
4 50 11
5 50 52
6 76 385
7 82 251
8 35 384
9 38 362
10 81 27
11 31 238
12 13 318
13 30 30
14 46 132
15 52 281
16 18 60
17 22 145
18 66 2
19 73 244
20 59 252
21 53 310
22 25 11
23 47 265
24 7 283
25 23 156
26 2 41
27 44 299
28 91 291
29 10 81
30 38 73
31 82 252
32 73 112
33 89 22
34 47 289
35 91 105
EOF
